data/lp_files/pEFS/29_3.lp
\ Model foo
\ LP format - for model browsing. Use MPS format to capture full model detail.
Minimize
  z
Subject To
 allocateEach[1]: x[1,1] + x[2,1] = 1
 allocateEach[2]: x[1,2] + x[2,2] = 1
 allocateEach[3]: x[1,3] + x[2,3] = 1
 allocateEach[4]: x[1,4] + x[2,4] = 1
 allocateEach[5]: x[1,5] + x[2,5] = 1
 allocateEach[6]: x[1,6] + x[2,6] = 1
 allocateEach[7]: x[1,7] + x[2,7] = 1
 allocateEach[8]: x[1,8] + x[2,8] = 1
 allocateEach[9]: x[1,9] + x[2,9] = 1
 allocateAllCash: cashProportion[1] + cashProportion[2] = 1
 findWorstP[1,2]: z + 0.0645786244752987 cashProportion[1]
   - 0.0645786244752987 cashProportion[2] + 0.2213109460768486 x[1,1]
   + 0.2392315143687439 x[1,2] + 0.00810461737164998 x[1,3]
   + 0.0947368421052631 x[1,4] + 0.0127865676461091 x[1,5]
   + 0.0969002260251857 x[1,6] + 0.0985469809493058 x[1,7]
   + 0.0799160477881821 x[1,8] + 0.083887633193413 x[1,9]
   - 0.2213109460768486 x[2,1] - 0.2392315143687439 x[2,2]
   - 0.00810461737164998 x[2,3] - 0.0947368421052631 x[2,4]
   - 0.0127865676461091 x[2,5] - 0.0969002260251857 x[2,6]
   - 0.0985469809493058 x[2,7] - 0.0799160477881821 x[2,8]
   - 0.083887633193413 x[2,9] >= 0
 findWorstP[2,1]: z - 0.0446488368977988 cashProportion[1]
   + 0.0446488368977988 cashProportion[2] - 0.2100504531856945 x[1,1]
   - 0.1156851364021967 x[1,2] - 0.1600660802786087 x[1,3]
   - 0.104969415546725 x[1,4] - 0.1920792963343305 x[1,5]
   - 0.046390141536813 x[1,6] - 0.0819529401259097 x[1,7]
   - 0.021743983569228 x[1,8] - 0.022413716122695 x[1,9]
   + 0.2100504531856945 x[2,1] + 0.1156851364021967 x[2,2]
   + 0.1600660802786087 x[2,3] + 0.104969415546725 x[2,4]
   + 0.1920792963343305 x[2,5] + 0.046390141536813 x[2,6]
   + 0.0819529401259097 x[2,7] + 0.021743983569228 x[2,8]
   + 0.022413716122695 x[2,9] >= 0
Bounds
 z <= 1
 -infinity <= cashProportion[1] <= 1
 -infinity <= cashProportion[2] <= 1
Binaries
 x[1,1] x[1,2] x[1,3] x[1,4] x[1,5] x[1,6] x[1,7] x[1,8] x[1,9] x[2,1]
 x[2,2] x[2,3] x[2,4] x[2,5] x[2,6] x[2,7] x[2,8] x[2,9]
End
